11
1 7
2 1
3 3
4 5
5 9
6 9
7 4
8 7
9 4
10 10
32
0 1 68
1 0 68
0 2 42
2 0 42
0 3 47
3 0 47
0 4 12
4 0 12
0 5 92
5 0 92
0 6 7
6 0 7
0 7 2
7 0 2
0 8 58
8 0 58
0 9 70
9 0 70
0 10 8
10 0 8
1 5 74
1 6 13
2 5 49
2 6 88
2 7 55
2 8 17
3 4 26
3 5 47
3 6 44
3 10 80
7 8 14
7 9 46
